2646571063696124643 -7 0
h 6 5 0
h -5 10 0
h 7 0
h 4 0
h 8 0
2801963835414381354 -4 0
h 2 10 1 0
h -1 2 0
2968956804726945429 -6 0
2422493045045629356 -8 0
h 9 0
6223777399363060526 -9 0
1338140416833398041 -3 0
44841508630012266 -10 0
